GLPSOL--GLPK LP/MIP Solver 5.0
Parameter(s) specified in the command line:
 --lp ../modeles/15_174.lp --log 15_174.log
Reading problem data from '../modeles/15_174.lp'...
2671 rows, 5250 columns, 18315 non-zeros
2610 integer variables, all of which are binary
7942 lines were read
GLPK Integer Optimizer 5.0
2671 rows, 5250 columns, 18315 non-zeros
2610 integer variables, all of which are binary
Preprocessing...
2610 constraint coefficient(s) were reduced
2671 rows, 5235 columns, 18300 non-zeros
2610 integer variables, all of which are binary
Scaling...
 A: min|aij| =  5.285e-04  max|aij| =  4.000e+00  ratio =  7.569e+03
GM: min|aij| =  1.072e-01  max|aij| =  9.327e+00  ratio =  8.700e+01
EQ: min|aij| =  1.149e-02  max|aij| =  1.000e+00  ratio =  8.700e+01
2N: min|aij| =  7.812e-03  max|aij| =  1.738e+00  ratio =  2.224e+02
Constructing initial basis...
Size of triangular part is 2671
Solving LP relaxation...
GLPK Simplex Optimizer 5.0
2671 rows, 5235 columns, 18300 non-zeros
      0: obj =   3.000000000e+01 inf =   7.450e+01 (31)
    194: obj =  -1.853565056e-02 inf =   0.000e+00 (0)
*   784: obj =  -3.870314843e+00 inf =   0.000e+00 (0) 1
OPTIMAL LP SOLUTION FOUND
Integer optimization begins...
Long-step dual simplex will be used
+   784: mip =     not found yet >=              -inf        (1; 0)
+   855: >>>>>  -3.868315842e+00 >=  -3.870314843e+00 < 0.1% (39; 0)
+   886: >>>>>  -3.870314843e+00 >=  -3.870314843e+00 < 0.1% (60; 3)
+   886: mip =  -3.870314843e+00 >=     tree is empty   0.0% (0; 123)
INTEGER OPTIMAL SOLUTION FOUND
Time used:   0.4 secs
Memory used: 7.6 Mb (8003145 bytes)
